networks/zoo_24_53/zoo_24_53-lower.sol
<?xml version = "1.0" encoding="UTF-8" standalone="yes"?>
<CPLEXSolution version="1.2">
 <header
   problemName="networks/zoo_24_53/zoo_24_53-lower.lp"
   solutionName="incumbent"
   solutionIndex="-1"
   objectiveValue="11"
   solutionTypeValue="3"
   solutionTypeString="primal"
   solutionStatusValue="101"
   solutionStatusString="integer optimal solution"
   solutionMethodString="mip"
   primalFeasible="1"
   dualFeasible="1"
   MIPNodes="0"
   MIPIterations="0"
   writeLevel="3"/>
 <quality
   epInt="1.0000000000000001e-05"
   epRHS="9.9999999999999995e-07"
   maxIntInfeas="0"
   maxPrimalInfeas="0"
   maxX="1"
   maxSlack="1"/>
 <variables>
  <variable name="Y(1,4)" index="3" value="1"/>
  <variable name="Y(2,12)" index="34" value="1"/>
  <variable name="Y(3,1)" index="46" value="1"/>
  <variable name="Y(4,3)" index="71" value="1"/>
  <variable name="Y(6,7)" index="121" value="1"/>
  <variable name="Y(7,8)" index="145" value="1"/>
  <variable name="Y(8,10)" index="170" value="1"/>
  <variable name="Y(16,2)" index="346" value="1"/>
  <variable name="Y(18,5)" index="395" value="1"/>
  <variable name="Y(21,9)" index="468" value="1"/>
  <variable name="Y(23,11)" index="516" value="1"/>
  <variable name="X(1,4,1)" index="1219" value="1"/>
  <variable name="X(1,13,3)" index="1274" value="1"/>
  <variable name="X(2,4,3)" index="1327" value="1"/>
  <variable name="X(2,14,16)" index="1393" value="1"/>
  <variable name="X(3,4,10)" index="1440" value="1"/>
  <variable name="X(3,12,12)" index="1495" value="1"/>
  <variable name="X(3,15,4)" index="1540" value="1"/>
  <variable name="X(4,1,3)" index="1592" value="1"/>
  <variable name="X(4,2,16)" index="1658" value="1"/>
  <variable name="X(4,3,4)" index="1699" value="1"/>
  <variable name="X(4,11,8)" index="1756" value="1"/>
  <variable name="X(4,12,2)" index="1803" value="1"/>
  <variable name="X(4,16,1)" index="1855" value="1"/>
  <variable name="X(5,12,25)" index="1932" value="1"/>
  <variable name="X(5,17,18)" index="1978" value="1"/>
  <variable name="X(6,12,28)" index="2041" value="1"/>
  <variable name="X(7,12,30)" index="2096" value="1"/>
  <variable name="X(7,19,6)" index="2125" value="1"/>
  <variable name="X(8,12,32)" index="2204" value="1"/>
  <variable name="X(8,20,7)" index="2232" value="1"/>
  <variable name="X(9,12,34)" index="2312" value="1"/>
  <variable name="X(9,21,21)" index="2352" value="1"/>
  <variable name="X(10,22,8)" index="2392" value="1"/>
  <variable name="X(11,4,36)" index="2473" value="1"/>
  <variable name="X(11,10,8)" index="2498" value="1"/>
  <variable name="X(11,12,39)" index="2582" value="1"/>
  <variable name="X(11,23,23)" index="2619" value="1"/>
  <variable name="X(12,3,46)" index="2695" value="1"/>
  <variable name="X(12,4,25)" index="2727" value="1"/>
  <variable name="X(12,5,18)" index="2773" value="1"/>
  <variable name="X(12,7,6)" index="2814" value="1"/>
  <variable name="X(12,8,7)" index="2868" value="1"/>
  <variable name="X(12,9,21)" index="2935" value="1"/>
  <variable name="X(12,11,26)" index="2993" value="1"/>
  <variable name="X(12,24,2)" index="3022" value="1"/>
 </variables>
</CPLEXSolution>
